113
0 105 104 65 14 38 8 47 40 49 
15 81 17 18 16 43 90 75 13 78 
52 58 85 92 69 23 108 9 110 39 
3 1 93 48 26 60 11 70 111 77 
46 64 4 36 101 25 5 44 67 32 
112 63 88 68 54 29 6 37 24 50 
102 99 100 83 61 94 30 56 86 96 
74 106 79 66 91 20 89 73 84 80 
7 35 34 31 22 97 2 95 51 107 
28 103 19 71 45 109 12 59 98 55 
21 33 42 53 62 10 27 41 87 72 
57 76 82 
